\* Problem: Unknown *\

Maximize
 obj: + xp_0_0 + xp_0_1 + xp_0_2 + xp_0_3 + xp_0_4 + xp_0_5 + xp_0_6
 + xp_0_7 + xp_1_0 + xp_1_1 + xp_2_0 + xp_2_1 + xp_2_2 + xp_2_3 + xp_2_4
 + xp_3_0 + xp_3_1 + xp_3_2 + xp_3_3 + xp_4_0 + xp_4_1 + xp_5_0 + xp_5_1
 + xp_5_2 + xp_6_0 + xp_6_1 + xp_6_2 + xp_7_0 + xp_7_1 + xp_8_0 + xp_8_1
 + xp_9_0 + xp_10_0 + xp_10_1 + xp_11_0 + xp_11_1 + xp_11_2 + xp_11_3
 + xp_12_0 + xp_13_0 + xp_13_1 + xp_14_0 + xp_14_1 + xp_15_0 + xp_16_0
 + xp_16_1 + xp_17_0 + xp_17_1 + xp_17_2 + xp_17_3 + xp_17_4 + xp_17_5
 + xp_17_6 + xp_18_0 + xp_18_1 + xp_18_2 + xp_18_3 + xp_19_0 + xp_19_1
 + xp_19_2 + xp_20_0 + xp_20_1 + xp_20_2 + xp_20_3 + xp_21_0 + xp_21_1
 + xp_21_2 + xp_21_3 + xp_21_4 + xp_22_0 + xp_22_1 + xp_22_2 + xp_22_3
 + xp_22_4 + xp_22_5 + xp_23_0 + xp_23_1 + xp_23_2 + xp_23_3

Subject To
 r_1: 0 xp_0_0 <= 29.7154017857143
 r_2: + xp_22_2 + xp_18_3 + xp_5_2 + xp_2_3 <= 28.8106343283582
 r_3: + xp_23_3 + xp_21_2 + xp_18_2 <= 30
 r_4: + xp_17_1 + xp_15_0 <= 30
 r_5: + xp_18_0 <= 27.7826086956522
 r_6: + xp_18_1 <= 30
 r_7: + xp_20_3 <= 29.7154017857143
 r_8: + xp_11_2 + xp_6_1 + xp_5_1 + xp_3_3 + xp_3_2 + xp_2_2
 <= 28.8106343283582
 r_9: + xp_23_2 + xp_22_4 + xp_17_6 + xp_11_1 + xp_3_1 <= 30
 r_10: + xp_3_0 <= 30
 r_11: + xp_18_1 + xp_11_3 + xp_0_6 <= 27.7826086956522
 r_12: + xp_11_0 <= 30
 r_13: 0 xp_0_0 <= 30
 r_14: + xp_21_1 + xp_14_0 + xp_0_5 + xp_0_1 <= 28.8106343283582
 r_15: + xp_21_0 + xp_19_2 <= 29.7154017857143
 r_16: + xp_22_1 + xp_21_3 + xp_0_4 + xp_0_3 + xp_0_2
 <= 29.7154017857143
 r_17: + xp_0_0 <= 27.7826086956522
 r_18: + xp_21_2 + xp_4_0 <= 29.7154017857143
 r_19: + xp_19_0 <= 29.7154017857143
 r_20: + xp_21_4 + xp_19_1 + xp_14_1 + xp_4_1 + xp_0_7 + xp_0_6
 <= 29.7154017857143
 r_21: + xp_20_1 <= 28.8106343283582
 r_22: + xp_21_1 + xp_7_1 <= 28.8106343283582
 r_23: + xp_22_3 + xp_22_2 + xp_3_2 <= 28.8106343283582
 r_24: + xp_17_3 + xp_6_2 + xp_6_1 + xp_3_3 + xp_0_5 <= 28.8106343283582
 r_25: 0 xp_0_0 <= 28.8106343283582
 r_26: + xp_18_3 + xp_0_7 + xp_0_1 <= 27.7826086956522
 r_27: + xp_11_2 + xp_4_1 <= 28.8106343283582
 r_28: + xp_10_1 <= 28.8106343283582
 r_29: + xp_20_2 <= 29.7154017857143
 r_30: + xp_2_0 <= 28.8106343283582
 r_31: + xp_23_3 + xp_23_2 + xp_22_4 + xp_18_2 + xp_17_6 + xp_3_1
 + xp_2_4 <= 30
 r_32: + xp_2_1 <= 30
 r_33: + xp_11_1 + xp_2_3 <= 30
 r_34: + xp_19_2 + xp_2_2 <= 30
 r_35: 0 xp_0_0 <= 29.7154017857143
 r_36: + xp_9_0 <= 28.8106343283582
 r_37: + xp_21_3 + xp_13_1 + xp_8_1 + xp_0_3 <= 30
 r_38: + xp_1_1 <= 30
 r_39: + xp_17_2 + xp_3_2 + xp_0_4 <= 30
 r_40: + xp_0_2 <= 27.7826086956522
 r_41: + xp_12_0 + xp_2_4 <= 28.8106343283582
 r_42: + xp_21_3 <= 30
 r_43: + xp_22_4 + xp_16_0 <= 30
 r_44: + xp_23_3 + xp_23_2 + xp_23_1 + xp_16_1 <= 30
 r_45: + xp_17_6 + xp_17_4 + xp_17_3 + xp_3_3 + xp_3_1 <= 30
 r_46: + xp_18_2 + xp_0_5 + xp_0_3 <= 27.7826086956522
 r_47: + xp_22_5 + xp_16_1 + xp_13_1 <= 30
 r_48: + xp_13_0 <= 30
 r_49: + xp_17_5 <= 30
 r_50: 0 xp_0_0 <= 27.7826086956522
 r_51: + xp_8_1 + xp_1_1 <= 30
 r_52: + xp_8_0 <= 30
 r_53: + xp_1_0 <= 30
 r_54: + xp_0_4 <= 27.7826086956522
 r_55: 0 xp_0_0 <= 30
 r_56: 0 xp_0_0 <= 30
 r_57: + xp_22_1 <= 27.7826086956522
 r_58: + xp_22_3 + xp_17_3 + xp_6_2 + xp_5_0 <= 27.7826086956522
 r_59: + xp_22_0 + xp_17_2 <= 27.7826086956522
 r_60: + xp_23_1 + xp_17_4 + xp_6_0 <= 27.7826086956522
 r_61: + xp_23_0 + xp_22_5 + xp_17_5 <= 27.7826086956522
 r_62: + xp_17_0 <= 27.7826086956522
 r_63: + xp_23_3 + xp_22_2 + xp_17_1 + xp_11_3 + xp_5_2
 <= 27.7826086956522
 r_64: + xp_23_2 + xp_22_4 + xp_17_6 + xp_6_1 + xp_5_1
 <= 27.7826086956522
 r_65: + xp_20_1 + xp_14_1 + xp_10_1 + xp_7_1 + xp_4_1 + xp_2_1 + xp_0_7
 <= 28.8106343283582
 r_66: + xp_21_4 + xp_20_2 + xp_7_0 <= 30
 r_67: + xp_20_3 + xp_19_1 + xp_10_0 + xp_0_6 <= 30
 r_68: + xp_20_0 <= 29.7154017857143

Bounds
 0 <= xp_0_0 <= 29.1259093688875
 0 <= xp_0_1 <= 9.11455250214684
 0 <= xp_0_2 <= 14.9957666092292
 0 <= xp_0_3 <= 2.82602855193167
 0 <= xp_0_4 <= 6.51768095343421
 0 <= xp_0_5 <= 0.865623849570877
 0 <= xp_0_6 <= 0.865623849570877
 0 <= xp_0_7 <= 0.865623849570877
 0 <= xp_1_0 <= 21.0721405960509
 0 <= xp_1_1 <= 15.4200834921875
 0 <= xp_2_0 <= 24.1527773643403
 0 <= xp_2_1 <= 0.77227447444347
 0 <= xp_2_2 <= 3.59830302637514
 0 <= xp_2_3 <= 5.14285197526208
 0 <= xp_2_4 <= 2.31682342333041
 0 <= xp_3_0 <= 26.9872896539848
 0 <= xp_3_1 <= 5.4144163629314
 0 <= xp_3_2 <= 0.517677562199947
 0 <= xp_3_3 <= 0.517677562199947
 0 <= xp_4_0 <= 24.4413035753783
 0 <= xp_4_1 <= 2.71570039726425
 0 <= xp_5_0 <= 13.5785019863213
 0 <= xp_5_1 <= 8.14710119179276
 0 <= xp_5_2 <= 5.43140079452851
 0 <= xp_6_0 <= 14.664782145227
 0 <= xp_6_1 <= 4.88826071507566
 0 <= xp_6_2 <= 4.88826071507566
 0 <= xp_7_0 <= 18.7383327411234
 0 <= xp_7_1 <= 4.68458318528084
 0 <= xp_8_0 <= 18.9420102709182
 0 <= xp_8_1 <= 2.1046678078798
 0 <= xp_9_0 <= 19.5190966053368
 0 <= xp_10_0 <= 13.6633676237358
 0 <= xp_10_1 <= 5.85572898160105
 0 <= xp_11_0 <= 28.2602855193167
 0 <= xp_11_1 <= 14.1301427596583
 0 <= xp_11_2 <= 8.478085655795
 0 <= xp_11_3 <= 5.65205710386333
 0 <= xp_12_0 <= 18.3309776815337
 0 <= xp_13_0 <= 14.2574270856373
 0 <= xp_13_1 <= 3.56435677140933
 0 <= xp_14_0 <= 13.5785019863213
 0 <= xp_14_1 <= 3.39462549658032
 0 <= xp_15_0 <= 16.8033962080726
 0 <= xp_16_0 <= 12.8995768870052
 0 <= xp_16_1 <= 3.2248942217513
 0 <= xp_17_0 <= 29.2192587440149
 0 <= xp_17_1 <= 3.78500177662995
 0 <= xp_17_2 <= 6.61103032856162
 0 <= xp_17_3 <= 1.89250088831498
 0 <= xp_17_4 <= 1.89250088831498
 0 <= xp_17_5 <= 1.89250088831498
 0 <= xp_17_6 <= 1.89250088831498
 0 <= xp_18_0 <= 23.159846580562
 0 <= xp_18_1 <= 14.0961738964641
 0 <= xp_18_2 <= 5.06647007556047
 0 <= xp_18_3 <= 2.82602855193167
 0 <= xp_19_0 <= 29.8981894953881
 0 <= xp_19_1 <= 9.82742385642871
 0 <= xp_19_2 <= 4.91371192821435
 0 <= xp_20_0 <= 28.5403336446989
 0 <= xp_20_1 <= 7.76519169328472
 0 <= xp_20_2 <= 5.93210522924555
 0 <= xp_20_3 <= 1.55303833865694
 0 <= xp_21_0 <= 23.8812016725567
 0 <= xp_21_1 <= 4.19236248827669
 0 <= xp_21_2 <= 5.55869642462172
 0 <= xp_21_3 <= 4.09900180903508
 0 <= xp_21_4 <= 4.19236248827669
 0 <= xp_22_0 <= 21.742581957654
 0 <= xp_22_1 <= 1.19660266151601
 0 <= xp_22_2 <= 8.04526242689535
 0 <= xp_22_3 <= 6.84865976537934
 0 <= xp_22_4 <= 1.19660266151601
 0 <= xp_22_5 <= 1.19660266151601
 0 <= xp_23_0 <= 25.7652131711017
 0 <= xp_23_1 <= 12.067893640343
 0 <= xp_23_2 <= 1.19660266151601
 0 <= xp_23_3 <= 1.19660266151601

End
